p cnf 6 27
3 5 -5 0
1 4 0
2 0
1 0
4 6 0
-5 5 -1 0
-6 -3 -2 0
4 -3 6 -1 0
1 -6 5 0
-6 4 0
1 2 -5 0
1 0
5 3 -3 0
2 0
-1 0
1 2 -3 -2 0
2 -5 5 6 0
4 0
1 5 -4 -3 0
1 4 5 6 0
-5 4 5 6 0
1 0
1 -6 4 6 0
-6 -5 -2 0
1 -5 0
-6 -2 0
-5 0
